(set-info :smt-lib-version 2.6)
(set-logic QF_LRA)
(set-info :source | Clock Synchronization. Bruno Dutertre (bruno@csl.sri.com) |)
(set-info :category "industrial")
(set-info :status unsat)
(declare-fun x_0 () Real)
(declare-fun x_1 () Real)
(declare-fun x_2 () Real)
(declare-fun x_3 () Real)
(declare-fun x_4 () Real)
(declare-fun x_5 () Real)
(declare-fun x_6 () Real)
(declare-fun x_7 () Real)
(declare-fun x_8 () Real)
(declare-fun x_9 () Real)
(declare-fun x_10 () Real)
(declare-fun x_11 () Real)
(declare-fun x_12 () Real)
(declare-fun x_13 () Real)
(declare-fun x_14 () Real)
(declare-fun x_15 () Real)
(declare-fun x_16 () Real)
(declare-fun x_17 () Real)
(declare-fun x_18 () Real)
(declare-fun x_19 () Real)
(declare-fun x_20 () Real)
(declare-fun x_21 () Real)
(declare-fun x_22 () Real)
(declare-fun x_23 () Real)
(declare-fun x_24 () Real)
(declare-fun x_25 () Real)
(declare-fun x_26 () Real)
(declare-fun x_27 () Real)
(declare-fun x_28 () Real)
(declare-fun x_29 () Real)
(declare-fun x_30 () Real)
(declare-fun x_31 () Real)
(declare-fun x_32 () Real)
(declare-fun x_33 () Real)
(declare-fun x_34 () Real)
(declare-fun x_35 () Real)
(declare-fun x_36 () Real)
(declare-fun x_37 () Real)
(declare-fun x_38 () Real)
(declare-fun x_39 () Real)
(declare-fun x_40 () Real)
(declare-fun x_41 () Real)
(declare-fun x_42 () Real)
(declare-fun x_43 () Real)
(declare-fun x_44 () Real)
(declare-fun x_45 () Real)
(declare-fun x_46 () Real)
(declare-fun x_47 () Real)
(declare-fun x_48 () Real)
(assert (let ((?v_20 (= x_22 x_3)) (?v_33 (= x_24 x_1)) (?v_13 (= x_26 x_2)) (?v_54 (= x_6 x_9))) (let ((?v_51 (not ?v_54)) (?v_50 (+ (+ x_9 x_4) x_5))) (let ((?v_70 (= x_6 ?v_50)) (?v_57 (= x_7 x_9))) (let ((?v_52 (not ?v_57)) (?v_74 (= x_7 ?v_50)) (?v_60 (= x_8 x_9))) (let ((?v_53 (not ?v_60)) (?v_78 (= x_8 ?v_50)) (?v_69 (not (<= x_25 x_9))) (?v_73 (not (<= x_27 x_9))) (?v_77 (not (<= x_23 x_9)))) (let ((?v_81 (or ?v_69 ?v_70)) (?v_84 (or ?v_73 ?v_74)) (?v_87 (or ?v_77 ?v_78)) (?v_5 (= x_19 0)) (?v_14 (= x_20 0)) (?v_21 (= x_21 0)) (?v_4 (= x_6 x_4)) (?v_15 (= x_7 x_4)) (?v_22 (= x_8 x_4)) (?v_34 (= x_25 1)) (?v_16 (= x_27 1)) (?v_23 (= x_23 1)) (?v_10 (= x_13 0)) (?v_17 (= x_16 0)) (?v_24 (= x_12 0)) (?v_9 (= x_14 0)) (?v_18 (= x_17 0)) (?v_25 (= x_11 0)) (?v_11 (= x_15 0)) (?v_19 (= x_18 0)) (?v_26 (= x_10 0)) (?v_6 (= 1 x_4)) (?v_3 (+ 1 1))) (let ((?v_8 (= x_25 ?v_3)) (?v_7 (= (+ x_4 x_5) 1))) (let ((?v_12 (and (not ?v_6) (not ?v_7))) (?v_32 (= x_27 ?v_3)) (?v_36 (= x_23 ?v_3)) (?v_43 (+ x_0 x_4))) (let ((?v_44 (<= x_6 ?v_43)) (?v_45 (<= x_7 ?v_43)) (?v_46 (<= x_8 ?v_43)) (?v_95 (not (<= (- ?v_43 x_47) 1))) (?v_96 (not (>= (- ?v_43 x_48) 1))) (?v_102 (- 1 1))) (let ((?v_97 (not (<= ?v_102 x_46))) (?v_101 (= x_4 ?v_43))) (let ((?v_100 (not ?v_101)) (?v_98 (+ (+ ?v_43 x_4) x_5))) (let ((?v_117 (= x_4 ?v_98))) (let ((?v_99 (and (or ?v_100 (not (>= (+ ?v_43 x_5) 1))) (not ?v_117))) (?v_116 (not (>= ?v_43 1)))) (let ((?v_110 (and ?v_101 ?v_116)) (?v_111 (< x_0 0)) (?v_121 (or ?v_116 ?v_117)) (?v_122 (- 0 x_1))) (let ((?v_118 (* ?v_122 1000)) (?v_127 (- 0 x_3))) (let ((?v_119 (* ?v_127 1000)) (?v_128 (+ 0 x_5))) (let ((?v_129 (and ?v_117 (not (= ?v_128 0)))) (?v_130 (- 0 0)) (?v_2 (* x_19 2)) (?v_27 (- ?v_3 1)) (?v_29 (+ ?v_3 1)) (?v_30 (+ ?v_128 1)) (?v_31 (+ (+ x_4 x_4) x_5)) (?v_28 (* x_20 2)) (?v_35 (* x_21 2)) (?v_37 (- x_25 x_28)) (?v_38 (- x_27 x_28)) (?v_39 (- x_23 x_28)) (?v_40 (+ x_25 x_28)) (?v_41 (+ x_27 x_28)) (?v_42 (+ x_23 x_28)) (?v_47 (- x_9 x_47)) (?v_48 (- x_9 x_48)) (?v_49 (+ x_9 x_5)) (?v_55 (- x_24 x_43)) (?v_56 (- x_25 x_40)) (?v_58 (- x_26 x_44)) (?v_59 (- x_27 x_41)) (?v_61 (- x_22 x_45)) (?v_62 (- x_23 x_42)) (?v_63 (- x_24 x_15)) (?v_64 (- x_25 x_9)) (?v_65 (- x_26 x_18)) (?v_66 (- x_27 x_9)) (?v_67 (- x_22 x_10)) (?v_68 (- x_23 x_9)) (?v_82 (- x_15 x_43))) (let ((?v_71 (* ?v_82 1000)) (?v_72 (* (- x_15 x_45) 1000)) (?v_75 (* (- x_18 x_43) 1000)) (?v_76 (* (- x_18 x_45) 1000)) (?v_79 (* (- x_10 x_43) 1000)) (?v_88 (- x_10 x_45))) (let ((?v_80 (* ?v_88 1000)) (?v_83 (- x_9 x_40)) (?v_85 (- x_18 x_44)) (?v_86 (- x_9 x_41)) (?v_89 (- x_9 x_42)) (?v_90 (- x_14 x_15)) (?v_92 (- x_17 x_18)) (?v_94 (- x_11 x_10)) (?v_103 (- x_1 x_1)) (?v_105 (- x_2 x_2)) (?v_107 (- x_3 x_3)) (?v_108 (- x_1 0)) (?v_109 (- 1 ?v_43)) (?v_113 (- x_2 0)) (?v_115 (- x_3 0)) (?v_123 (- ?v_43 1)) (?v_125 (- 0 x_2)) (?v_0 (+ x_0 (/ 999 1000))) (?v_1 (+ x_0 (/ 1001 1000))) (?v_91 (* (* x_5 999) (/ 1 1000))) (?v_93 (* (* x_5 1001) (/ 1 1000))) (?v_104 (* (* ?v_102 999) (/ 1 1000))) (?v_106 (* (* ?v_102 1001) (/ 1 1000)))) (let ((?v_112 (* (* ?v_109 999) (/ 1 1000))) (?v_114 (* (* ?v_109 1001) (/ 1 1000))) (?v_120 (and ?v_121 (or (not (>= (+ (+ (* (* (+ (+ (+ 1 (* ?v_118 (/ 1 999))) 1) (* ?v_119 (/ 1 999))) 1) (/ 1 2)) x_28) (/ 3001 1998)) 0)) (> (- (- (* (* (+ (+ (+ 1 (* ?v_118 (/ 1 1001))) 1) (* ?v_119 (/ 1 1001))) 1) (/ 1 2)) x_28) (/ 1 2)) 0)))) (?v_124 (* (* ?v_123 999) (/ 1 1000))) (?v_126 (* (* ?v_123 1001) (/ 1 1000))) (?v_131 (and ?v_117 (or (not (<= ?v_91 ?v_130)) (not (<= ?v_130 ?v_93)))))) (and (and (and (and (and (and (and (and (and (and (and (and (and (and (and (and (and (not (<= x_4 0)) (not (<= x_5 0))) (not (<= x_28 0))) (not (< x_46 (+ x_28 (* (* (+ (* (* x_5 1) (/ 1 2)) 1) 1001) (/ 1 999)))))) (< x_47 (- (* (* (- (- x_5 x_46) 1) 999) (/ 1 2)) 1))) (not (< x_47 (* (* (+ (+ (+ x_4 x_28) x_46) (/ 1501 1000)) 1001) (/ 1 999))))) (not (<= x_48 0))) (<= x_48 (- x_4 (+ (+ x_28 (* (* (+ x_5 2) 1001) (/ 1 999))) (/ 1 2))))) (= x_0 0)) (<= ?v_0 x_1)) (<= x_1 ?v_1)) (<= ?v_0 x_2)) (<= x_2 ?v_1)) (<= ?v_0 x_3)) (<= x_3 ?v_1)) (or (and (and (and (and (and (and (and (and (and (and (and (and (and (and (and (and (and (and (and (and (and (and (and (and (and (and (and (and (and (and (and (and (and (and (and (and (and (< x_0 x_1) (< x_0 x_2)) (< x_0 x_3)) (< x_0 x_29)) (<= x_29 x_1)) (<= x_29 x_2)) (<= x_29 x_3)) (or (or (= x_29 x_1) (= x_29 x_2)) (= x_29 x_3))) ?v_33) ?v_13) ?v_20) ?v_5) ?v_14) ?v_21) ?v_4) ?v_15) ?v_22) ?v_34) ?v_16) ?v_23) ?v_10) ?v_17) ?v_24) ?v_9) ?v_18) ?v_25) ?v_11) ?v_19) ?v_26) (= x_30 1)) (= x_31 1)) (= x_32 1)) (= x_33 1)) (= x_34 1)) (= x_35 1)) (= x_36 1)) (= x_37 1)) (= x_38 1)) (and (and (and (and (and (and (and (and (and (and (and (and (and (and (and (and (and (and (and (or (or (and (and (and (and (and (and (and (and (and (and (and (and (and (and (and (and (and (and (= x_0 x_1) (<= ?v_0 x_24)) (<= x_24 ?v_1)) (or (or (and (and (and (and ?v_6 (<= ?v_27 ?v_2)) (<= ?v_2 ?v_29)) ?v_8) ?v_4) (and (and (and ?v_7 (= x_25 ?v_30)) (= x_6 ?v_31)) ?v_5)) (and (and (and ?v_12 ?v_8) ?v_5) ?v_4))) (or (or (and (and (and ?v_6 (= x_15 x_0)) ?v_9) ?v_10) (and (and (and ?v_7 (= x_14 x_0)) (= x_13 (- x_25 1))) ?v_11)) (and (and (and ?v_12 ?v_11) ?v_9) ?v_10))) ?v_13) ?v_14) ?v_15) ?v_16) ?v_17) ?v_18) ?v_19) ?v_20) ?v_21) ?v_22) ?v_23) ?v_24) ?v_25) ?v_26) (and (and (and (and (and (and (and (and (and (and (and (and (and (and (and (and (and (and (= x_0 x_2) (<= ?v_0 x_26)) (<= x_26 ?v_1)) (or (or (and (and (and (and ?v_6 (<= ?v_27 ?v_28)) (<= ?v_28 ?v_29)) ?v_32) ?v_15) (and (and (and ?v_7 (= x_27 ?v_30)) (= x_7 ?v_31)) ?v_14)) (and (and (and ?v_12 ?v_32) ?v_14) ?v_15))) (or (or (and (and (and ?v_6 (= x_18 x_0)) ?v_18) ?v_17) (and (and (and ?v_7 (= x_17 x_0)) (= x_16 (- x_27 1))) ?v_19)) (and (and (and ?v_12 ?v_19) ?v_18) ?v_17))) ?v_33) ?v_5) ?v_4) ?v_34) ?v_10) ?v_9) ?v_11) ?v_20) ?v_21) ?v_22) ?v_23) ?v_24) ?v_25) ?v_26)) (and (and (and (and (and (and (and (and (and (and (and (and (and (and (and (and (and (and (= x_0 x_3) (<= ?v_0 x_22)) (<= x_22 ?v_1)) (or (or (and (and (and (and ?v_6 (<= ?v_27 ?v_35)) (<= ?v_35 ?v_29)) ?v_36) ?v_22) (and (and (and ?v_7 (= x_23 ?v_30)) (= x_8 ?v_31)) ?v_21)) (and (and (and ?v_12 ?v_36) ?v_21) ?v_22))) (or (or (and (and (and ?v_6 (= x_10 x_0)) ?v_25) ?v_24) (and (and (and ?v_7 (= x_11 x_0)) (= x_12 (- x_23 1))) ?v_26)) (and (and (and ?v_12 ?v_26) ?v_25) ?v_24))) ?v_33) ?v_5) ?v_4) ?v_34) ?v_10) ?v_9) ?v_11) ?v_13) ?v_14) ?v_15) ?v_16) ?v_17) ?v_18) ?v_19)) (<= ?v_37 x_30)) (<= ?v_37 x_33)) (<= ?v_37 x_36)) (<= ?v_38 x_31)) (<= ?v_38 x_34)) (<= ?v_38 x_37)) (<= ?v_39 x_32)) (<= ?v_39 x_35)) (<= ?v_39 x_38)) (<= x_30 ?v_40)) (<= x_33 ?v_40)) (<= x_36 ?v_40)) (<= x_31 ?v_41)) (<= x_34 ?v_41)) (<= x_37 ?v_41)) (<= x_32 ?v_42)) (<= x_35 ?v_42)) (<= x_38 ?v_42)) (= x_29 x_0)))) (or (and (and (and (and (and (and (and (and (and (and (not ?v_44) (not ?v_45)) (not ?v_46)) (= x_39 x_29)) (= x_40 x_25)) (= x_41 x_27)) (= x_42 x_23)) (= x_43 x_24)) (= x_44 x_26)) (= x_45 x_22)) (= x_9 ?v_98)) (and (and (and (and (and (and (and (and (or (or ?v_44 ?v_45) ?v_46) (= x_9 ?v_43)) (= x_39 x_0)) (= x_43 x_1)) (= x_44 x_2)) (= x_45 x_3)) (= x_40 1)) (= x_41 1)) (= x_42 1)))) (or (or (or (or (or (or (or (or (or (or (or (or (or (or (or (or (or (or (or (or (or (or (or (or (or (or (or (or (or (or (or (or (or (or (or (or (or (or (or (or (or (or (or (or (or (or (or (or (or (or (or (or (or (or (or (or (or (or (or (or (or (or (or (or (or (or (or (or (or (or (or (or (or (not (<= ?v_47 x_40)) (not (<= ?v_47 x_41))) (not (<= ?v_47 x_42))) (not (<= x_40 ?v_48))) (not (<= x_41 ?v_48))) (not (<= x_42 ?v_48))) (not (<= (- x_40 x_40) x_46))) (not (<= (- x_41 x_40) x_46))) (not (<= (- x_42 x_40) x_46))) (not (<= (- x_40 x_41) x_46))) (not (<= (- x_41 x_41) x_46))) (not (<= (- x_42 x_41) x_46))) (not (<= (- x_40 x_42) x_46))) (not (<= (- x_41 x_42) x_46))) (not (<= (- x_42 x_42) x_46))) (and (or ?v_51 (not (<= x_25 ?v_49))) (not ?v_70))) (and (or ?v_52 (not (<= x_27 ?v_49))) (not ?v_74))) (and (or ?v_53 (not (<= x_23 ?v_49))) (not ?v_78))) (and (and ?v_51 ?v_52) ?v_53)) (and ?v_54 (or (not (<= (* (* ?v_56 999) (/ 1 1000)) ?v_55)) (not (<= ?v_55 (* (* ?v_56 1001) (/ 1 1000))))))) (and ?v_57 (or (not (<= (* (* ?v_59 999) (/ 1 1000)) ?v_58)) (not (<= ?v_58 (* (* ?v_59 1001) (/ 1 1000))))))) (and ?v_60 (or (not (<= (* (* ?v_62 999) (/ 1 1000)) ?v_61)) (not (<= ?v_61 (* (* ?v_62 1001) (/ 1 1000))))))) (and (and ?v_54 ?v_69) (or (or (< x_29 x_15) (not (<= (* (* ?v_64 999) (/ 1 1000)) ?v_63))) (not (<= ?v_63 (* (* ?v_64 1001) (/ 1 1000))))))) (and (and ?v_57 ?v_73) (or (or (< x_29 x_18) (not (<= (* (* ?v_66 999) (/ 1 1000)) ?v_65))) (not (<= ?v_65 (* (* ?v_66 1001) (/ 1 1000))))))) (and (and ?v_60 ?v_77) (or (or (< x_29 x_10) (not (<= (* (* ?v_68 999) (/ 1 1000)) ?v_67))) (not (<= ?v_67 (* (* ?v_68 1001) (/ 1 1000))))))) (and ?v_81 (or (not (<= x_19 (+ (+ (* (* (+ (+ (+ x_40 (* ?v_71 (/ 1 999))) x_42) (* ?v_72 (/ 1 999))) 1) (/ 1 2)) x_28) (/ 3001 1998)))) (< x_19 (- (- (* (* (+ (+ (+ x_40 (* ?v_71 (/ 1 1001))) x_42) (* ?v_72 (/ 1 1001))) 1) (/ 1 2)) x_28) (/ 1 2)))))) (and ?v_84 (or (not (<= x_20 (+ (+ (* (* (+ (+ (+ x_40 (* ?v_75 (/ 1 999))) x_42) (* ?v_76 (/ 1 999))) 1) (/ 1 2)) x_28) (/ 3001 1998)))) (< x_20 (- (- (* (* (+ (+ (+ x_40 (* ?v_75 (/ 1 1001))) x_42) (* ?v_76 (/ 1 1001))) 1) (/ 1 2)) x_28) (/ 1 2)))))) (and ?v_87 (or (not (<= x_21 (+ (+ (* (* (+ (+ (+ x_40 (* ?v_79 (/ 1 999))) x_42) (* ?v_80 (/ 1 999))) 1) (/ 1 2)) x_28) (/ 3001 1998)))) (< x_21 (- (- (* (* (+ (+ (+ x_40 (* ?v_79 (/ 1 1001))) x_42) (* ?v_80 (/ 1 1001))) 1) (/ 1 2)) x_28) (/ 1 2)))))) (and ?v_81 (or (not (<= (* (* ?v_83 999) (/ 1 1000)) ?v_82)) (not (<= ?v_82 (* (* ?v_83 1001) (/ 1 1000))))))) (and ?v_84 (or (not (<= (* (* ?v_86 999) (/ 1 1000)) ?v_85)) (not (<= ?v_85 (* (* ?v_86 1001) (/ 1 1000))))))) (and ?v_87 (or (not (<= (* (* ?v_89 999) (/ 1 1000)) ?v_88)) (not (<= ?v_88 (* (* ?v_89 1001) (/ 1 1000))))))) (and ?v_70 (not (= x_13 (+ x_19 x_5))))) (and ?v_74 (not (= x_16 (+ x_20 x_5))))) (and ?v_78 (not (= x_12 (+ x_21 x_5))))) (and ?v_70 (or (not (<= ?v_91 ?v_90)) (not (<= ?v_90 ?v_93))))) (and ?v_74 (or (not (<= ?v_91 ?v_92)) (not (<= ?v_92 ?v_93))))) (and ?v_78 (or (not (<= ?v_91 ?v_94)) (not (<= ?v_94 ?v_93))))) ?v_95) ?v_95) ?v_95) ?v_96) ?v_96) ?v_96) ?v_97) ?v_97) ?v_97) ?v_97) ?v_97) ?v_97) ?v_97) ?v_97) ?v_97) ?v_99) ?v_99) ?v_99) (and (and ?v_100 ?v_100) ?v_100)) (and ?v_101 (or (not (<= ?v_104 ?v_103)) (not (<= ?v_103 ?v_106))))) (and ?v_101 (or (not (<= ?v_104 ?v_105)) (not (<= ?v_105 ?v_106))))) (and ?v_101 (or (not (<= ?v_104 ?v_107)) (not (<= ?v_107 ?v_106))))) (and ?v_110 (or (or ?v_111 (not (<= ?v_112 ?v_108))) (not (<= ?v_108 ?v_114))))) (and ?v_110 (or (or ?v_111 (not (<= ?v_112 ?v_113))) (not (<= ?v_113 ?v_114))))) (and ?v_110 (or (or ?v_111 (not (<= ?v_112 ?v_115))) (not (<= ?v_115 ?v_114))))) ?v_120) ?v_120) ?v_120) (and ?v_121 (or (not (<= ?v_124 ?v_122)) (not (<= ?v_122 ?v_126))))) (and ?v_121 (or (not (<= ?v_124 ?v_125)) (not (<= ?v_125 ?v_126))))) (and ?v_121 (or (not (<= ?v_124 ?v_127)) (not (<= ?v_127 ?v_126))))) ?v_129) ?v_129) ?v_129) ?v_131) ?v_131) ?v_131)))))))))))))))))))))))
(check-sat)
(exit)
